(set-logic QF_SLIA)
(set-option :produce-models true)
(declare-fun x () String)
(assert (str.in_re x (re.++ (re.* (re.++ (str.to_re "15") (re.* (re.union (re.range "7" "9") (re.range "6" "8"))))) (re.+ (re.++ (str.to_re "325288") (re.* (re.union (re.range "3" "7") (re.range "3" "4"))))) (re.* (re.union (re.range "2" "7") (str.to_re "6439"))))))
(assert (= (mod (mod (str.to_int x) 299) 106) 0))
(assert (< (str.len x) 100))
(check-sat)
(get-model)